c This is UnifRandomKSATGenerator
c uniform random 3-SAT generated instance with: 
c clause length: 3 
c number variables: 10 
c number clauses: 43 
c clause to variable ratio: 4.27 
c random number generator name: SHA1PRNG 
c random number generator provider: SUN 
c random number generator seed: 3854372923650514941 
p cnf 10 43
-1 9 7 0
-1 -5 7 0
9 1 7 0
-1 -3 5 0
1 10 7 0
8 -3 -6 0
-1 10 3 0
-10 -5 -6 0
-9 4 6 0
-9 8 10 0
-3 -6 -8 0
1 -2 -4 0
-1 8 4 0
8 2 6 0
8 10 3 0
-4 -5 6 0
8 -4 -5 0
8 9 7 0
-10 1 -5 0
-9 -2 -10 0
-1 -5 -6 0
9 3 -8 0
2 -5 -8 0
3 -5 -6 0
9 -4 3 0
2 3 6 0
10 4 7 0
10 3 5 0
-9 2 4 0
4 5 -8 0
-9 -3 -6 0
-10 -3 -8 0
-10 -4 3 0
-9 2 10 0
-9 2 -6 0
9 -4 -8 0
9 -2 -5 0
8 5 6 0
9 10 -8 0
5 -6 7 0
8 -5 7 0
1 -10 -7 0
3 -5 7 0
